;; sequence(s): A195857
;; terms: 1 11 32 76 168 360 760 1592 3320 6904 14328 29688 61432 126968 262136 540664 1114104 2293752 4718584 9699320
;; small program: loop2((2 * (2 + (2 + x))) + y, 0, x, 1, x)
;; fast program: (((((loop(x * x, 1, loop(x + x, x div 2, 1)) * (1 + (x mod 2))) - 1) * (x + (2 + (2 * (2 * (2 + 2)))))) + 2) + x) div 2
(set-logic UFNIA)
(define-fun divf ((a Int) (b Int)) Int (ite (< 0 b) (div a b) (div (- a) (- b))))
(define-fun modf ((a Int) (b Int)) Int (ite (< 0 b) (mod a b) (- (mod (- a) (- b)))))
(declare-fun f0 (Int Int) Int)
(declare-fun g0 () Int)
(declare-fun h0 (Int) Int)
(declare-fun i0 () Int)
(declare-fun j0 (Int) Int)
(declare-fun u0 (Int Int Int) Int)
(declare-fun v0 (Int Int Int) Int)
(declare-fun w0 (Int) Int)
(declare-fun small (Int) Int)
(declare-fun f1 (Int) Int)
(declare-fun g1 () Int)
(declare-fun f2 (Int) Int)
(declare-fun g2 (Int) Int)
(declare-fun h2 () Int)
(declare-fun u2 (Int Int) Int)
(declare-fun v2 (Int) Int)
(declare-fun h1 (Int) Int)
(declare-fun u1 (Int Int) Int)
(declare-fun v1 (Int) Int)
(declare-fun fast (Int) Int)
(assert (forall ((x Int) (y Int)) (= (f0 x y) (+ (* 2 (+ 2 (+ 2 x))) y))))
(assert (= g0 0))
(assert (forall ((x Int)) (= (h0 x) x)))
(assert (= i0 1))
(assert (forall ((x Int)) (= (j0 x) x)))
(assert (forall ((x Int) (y Int) (z Int)) (= (u0 x y z) (ite (<= x 0) y (f0 (u0 (- x 1) y z) (v0 (- x 1) y z))))))
(assert (forall ((x Int) (y Int) (z Int)) (= (v0 x y z) (ite (<= x 0) z g0))))
(assert (forall ((x Int)) (= (w0 x) (u0 (h0 x) i0 (j0 x)))))
(assert (forall ((x Int)) (= (small x) (w0 x))))
(assert (forall ((x Int)) (= (f1 x) (* x x))))
(assert (= g1 1))
(assert (forall ((x Int)) (= (f2 x) (+ x x))))
(assert (forall ((x Int)) (= (g2 x) (divf x 2))))
(assert (= h2 1))
(assert (forall ((x Int) (y Int)) (= (u2 x y) (ite (<= x 0) y (f2 (u2 (- x 1) y))))))
(assert (forall ((x Int)) (= (v2 x) (u2 (g2 x) h2))))
(assert (forall ((x Int)) (= (h1 x) (v2 x))))
(assert (forall ((x Int) (y Int)) (= (u1 x y) (ite (<= x 0) y (f1 (u1 (- x 1) y))))))
(assert (forall ((x Int)) (= (v1 x) (u1 g1 (h1 x)))))
(assert (forall ((x Int)) (= (fast x) (divf (+ (+ (* (- (* (v1 x) (+ 1 (modf x 2))) 1) (+ x (+ 2 (* 2 (* 2 (+ 2 2)))))) 2) x) 2))))
(assert (exists ((c Int)) (and (>= c 0) (not (= (small c) (fast c))))))
(check-sat)
